c generated by sgen
p cnf 101 212
-2 -3 -4 0
-1 -3 -4 0
-1 -2 -4 0
-1 -2 -3 0
-6 -7 -8 0
-5 -7 -8 0
-5 -6 -8 0
-5 -6 -7 0
-10 -11 -12 0
-9 -11 -12 0
-9 -10 -12 0
-9 -10 -11 0
-14 -15 -16 0
-13 -15 -16 0
-13 -14 -16 0
-13 -14 -15 0
-18 -19 -20 0
-17 -19 -20 0
-17 -18 -20 0
-17 -18 -19 0
-22 -23 -24 0
-21 -23 -24 0
-21 -22 -24 0
-21 -22 -23 0
-26 -27 -28 0
-25 -27 -28 0
-25 -26 -28 0
-25 -26 -27 0
-30 -31 -32 0
-29 -31 -32 0
-29 -30 -32 0
-29 -30 -31 0
-34 -35 -36 0
-33 -35 -36 0
-33 -34 -36 0
-33 -34 -35 0
-38 -39 -40 0
-37 -39 -40 0
-37 -38 -40 0
-37 -38 -39 0
-42 -43 -44 0
-41 -43 -44 0
-41 -42 -44 0
-41 -42 -43 0
-46 -47 -48 0
-45 -47 -48 0
-45 -46 -48 0
-45 -46 -47 0
-50 -51 -52 0
-49 -51 -52 0
-49 -50 -52 0
-49 -50 -51 0
-54 -55 -56 0
-53 -55 -56 0
-53 -54 -56 0
-53 -54 -55 0
-58 -59 -60 0
-57 -59 -60 0
-57 -58 -60 0
-57 -58 -59 0
-62 -63 -64 0
-61 -63 -64 0
-61 -62 -64 0
-61 -62 -63 0
-66 -67 -68 0
-65 -67 -68 0
-65 -66 -68 0
-65 -66 -67 0
-70 -71 -72 0
-69 -71 -72 0
-69 -70 -72 0
-69 -70 -71 0
-74 -75 -76 0
-73 -75 -76 0
-73 -74 -76 0
-73 -74 -75 0
-78 -79 -80 0
-77 -79 -80 0
-77 -78 -80 0
-77 -78 -79 0
-82 -83 -84 0
-81 -83 -84 0
-81 -82 -84 0
-81 -82 -83 0
-86 -87 -88 0
-85 -87 -88 0
-85 -86 -88 0
-85 -86 -87 0
-90 -91 -92 0
-89 -91 -92 0
-89 -90 -92 0
-89 -90 -91 0
-94 -95 -96 0
-93 -95 -96 0
-93 -94 -96 0
-93 -94 -95 0
-97 -98 -99 0
-97 -98 -100 0
-97 -98 -101 0
-97 -99 -100 0
-97 -99 -101 0
-97 -100 -101 0
-98 -99 -100 0
-98 -99 -101 0
-98 -100 -101 0
-99 -100 -101 0
58 62 70 0
29 62 70 0
29 58 70 0
29 58 62 0
36 41 84 0
77 41 84 0
77 36 84 0
77 36 41 0
1 30 78 0
45 30 78 0
45 1 78 0
45 1 30 0
93 91 16 0
74 91 16 0
74 93 16 0
74 93 91 0
66 21 98 0
32 21 98 0
32 66 98 0
32 66 21 0
53 42 27 0
8 42 27 0
8 53 27 0
8 53 42 0
11 5 83 0
88 5 83 0
88 11 83 0
88 11 5 0
23 33 15 0
25 33 15 0
25 23 15 0
25 23 33 0
69 80 40 0
101 80 40 0
101 69 40 0
101 69 80 0
4 100 35 0
63 100 35 0
63 4 35 0
63 4 100 0
48 6 50 0
39 6 50 0
39 48 50 0
39 48 6 0
96 54 49 0
82 54 49 0
82 96 49 0
82 96 54 0
73 52 28 0
65 52 28 0
65 73 28 0
65 73 52 0
46 89 43 0
24 89 43 0
24 46 43 0
24 46 89 0
64 18 79 0
51 18 79 0
51 64 79 0
51 64 18 0
59 81 3 0
67 81 3 0
67 59 3 0
67 59 81 0
17 22 56 0
9 22 56 0
9 17 56 0
9 17 22 0
94 7 99 0
19 7 99 0
19 94 99 0
19 94 7 0
47 85 20 0
68 85 20 0
68 47 20 0
68 47 85 0
37 13 61 0
55 13 61 0
55 37 61 0
55 37 13 0
90 97 10 0
72 97 10 0
72 90 10 0
72 90 97 0
38 57 92 0
26 57 92 0
26 38 92 0
26 38 57 0
86 2 71 0
14 2 71 0
14 86 71 0
14 86 2 0
87 75 31 0
34 75 31 0
34 87 31 0
34 87 75 0
95 76 60 0
95 76 12 0
95 76 44 0
95 60 12 0
95 60 44 0
95 12 44 0
76 60 12 0
76 60 44 0
76 12 44 0
60 12 44 0
